DIMENSION: 96
95
96
94
68
67
66
64
65
28
27
26
22
23
24
25
21
19
20
18
17
16
15
14
13
12
10
9
8
7
6
5
4
3
2
29
1
30
31
32
36
37
38
35
34
33
11
45
44
39
40
41
42
43
49
46
48
47
50
53
52
51
55
79
80
69
70
57
56
58
54
60
63
62
61
59
71
72
73
74
84
87
82
81
83
91
90
89
88
86
85
78
75
77
76
92
93
